Set parameter Username
Academic license - for non-commercial use only - expires 2022-10-14
Solving optimization problem
Gurobi Optimizer version 9.5.0 build v9.5.0rc5 (linux64)
Thread count: 28 physical cores, 56 logical processors, using up to 28 threads
Optimize a model with 478226 rows, 17335 columns and 966488 nonzeros
Model fingerprint: 0xb4a7f4e8
Model has 41136 general constraints
Variable types: 0 continuous, 17335 integer (15408 binary)
Coefficient statistics:
  Matrix range     [1e+00, 1e+00]
  Objective range  [1e+00, 1e+00]
  Bounds range     [1e+00, 1e+00]
  RHS range        [1e+00, 2e+01]
  GenCon rhs range [1e+00, 7e+00]
  GenCon coe range [1e+00, 1e+00]
Presolve removed 1961 rows and 297 columns
Presolve time: 0.27s

Explored 0 nodes (0 simplex iterations) in 0.30 seconds (0.19 work units)
Thread count was 1 (of 56 available processors)

Solution count 0

Model is infeasible
Best objective -, best bound -, gap -
Sad
